; benchmark generated from python API
(set-info :status unknown)
(declare-datatypes ((RealState 0)) (((RMk1 (rval1 Real)) (RMk2 (rval2 Real)))))
 (assert
 (forall ((|v17:0| Real) )(forall ((|v16:1| Real) )(forall ((|v15:2| Real) )(forall ((|v14:3| Real) )(forall ((|v13:4| Real) )(forall ((|v12:5| Real) )(exists ((|v11:6_st| RealState) (val!8064 Real) )(exists ((|v10:7_st| RealState) (val!8065 Real) )(exists ((|v9:8_st| RealState) (val!8066 Real) )(exists ((|v8:9_st| RealState) (val!8067 Real) )(exists ((|v7:10_st| RealState) (val!8068 Real) )(exists ((|v6:11_st| RealState) (val!8069 Real) )(forall ((|v5:12| Real) )(forall ((|v4:13| Real) )(forall ((|v3:14| Real) )(forall ((|v2:15| Real) )(forall ((|v1:16| Real) )(forall ((|v0:17| Real) )(let ((?x3466 (- 19.0)))
 (let ((?x686 (* ?x3466 |v2:15|)))
 (let ((?x2904 (+ (+ (+ (* (- 6.0) |v2:15|) (* 18.0 |v14:3|)) (* 16.0 |v2:15|)) ?x686)))
 (let ((?x2152 (- 13.0)))
 (let ((?x3033 (+ (+ (+ (* (- 18.0) |v0:17|) (* 9.0 |v3:14|)) (* ?x3466 |v15:2|)) (* (- 16.0) (rval2 |v10:7_st|)))))
 (let ((?x993 (* 7.0 |v0:17|)))
 (let ((?x1753 (+ (+ (+ (* (- 9.0) |v1:16|) (* 5.0 |v17:0|)) (* (- 15.0) |v15:2|)) ?x993)))
 (let ((?x476 (* 7.0 |v5:12|)))
 (let (($x12 (<= (+ (+ (+ (* (- 16.0) |v13:4|) (* 2.0 |v2:15|)) (* ?x3466 |v0:17|)) ?x476) 17.0)))
 (let (($x115 (or (and $x12 (<= ?x1753 1.0)) (or (<= ?x3033 ?x2152) (<= ?x2904 10.0)))))
 (let ((?x1949 (- 8.0)))
 (let ((?x2284 (rval2 |v7:10_st|)))
 (let ((?x501 (* 11.0 ?x2284)))
 (let ((?x395 (+ (+ (+ (* (- 9.0) |v5:12|) |v5:12|) (* (- 7.0) (rval2 |v8:9_st|))) ?x501)))
 (let ((?x1901 (+ (+ (+ (* (- 3.0) |v16:1|) (* 14.0 (rval2 |v6:11_st|))) (* 4.0 |v17:0|)) (* (- 15.0) (rval2 |v10:7_st|)))))
 (let ((?x1795 (- 2.0)))
 (let ((?x1486 (+ (+ (+ (* (- 1.0) |v16:1|) (* 20.0 |v0:17|)) |v4:13|) (* 0.0 |v15:2|))))
 (let ((?x913 (- 7.0)))
 (let ((?x478 (* 15.0 |v12:5|)))
 (let ((?x718 (+ (+ (* 17.0 (rval2 |v9:8_st|)) (* 11.0 |v15:2|)) (* 2.0 (rval2 |v9:8_st|)))))
 (let ((?x3076 (* 11.0 |v15:2|)))
 (let (($x296 (<= (+ (+ (+ (* (- 5.0) |v14:3|) (* 12.0 (rval2 |v9:8_st|))) ?x686) ?x3076) 10.0)))
 (let ((?x1947 (rval2 |v8:9_st|)))
 (let ((?x1956 (* 11.0 ?x1947)))
 (let ((?x1472 (* 14.0 |v4:13|)))
 (let ((?x616 (+ (+ (* 10.0 |v3:14|) (* (- 1.0) |v5:12|)) ?x1472)))
 (let ((?x1034 (- 5.0)))
 (let ((?x1085 (* 19.0 |v1:16|)))
 (let ((?x2589 (+ (+ (+ (* (- 6.0) (rval2 |v9:8_st|)) |v2:15|) (* (- 17.0) |v16:1|)) ?x1085)))
 (let ((?x2122 (- 11.0)))
 (let ((?x2114 (rval2 |v6:11_st|)))
 (let (($x3012 (<= (+ (+ (+ (* 9.0 ?x1947) (* ?x1034 |v5:12|)) (* (- 6.0) ?x2114)) ?x2114) ?x2122)))
 (let (($x679 (and (or (or $x3012 (<= ?x2589 ?x1034)) (or (<= (+ ?x616 ?x1956) 1.0) $x296)) (and (<= (+ ?x718 ?x478) ?x913) (and (<= ?x1486 ?x1795) (<= ?x1901 15.0))))))
 (let ((?x2738 (- 3.0)))
 (let ((?x261 (* 4.0 |v12:5|)))
 (let ((?x2078 (* 5.0 |v4:13|)))
 (let ((?x1640 (+ (+ (* (- 18.0) |v5:12|) (* 18.0 |v3:14|)) ?x2078)))
 (let ((?x2360 (+ (+ (+ (* (- 12.0) ?x1947) (* 11.0 |v1:16|)) (* 18.0 (rval2 |v9:8_st|))) (* (- 4.0) ?x2114))))
 (let ((?x809 (* ?x3466 |v3:14|)))
 (let (($x410 (<= (+ (+ (+ (* 18.0 |v12:5|) (* 7.0 |v13:4|)) (* 3.0 ?x1947)) ?x809) 7.0)))
 (let ((?x2294 (- 14.0)))
 (let ((?x753 (* 8.0 |v15:2|)))
 (let ((?x1458 (+ (+ (+ (* 12.0 |v16:1|) (* (- 15.0) ?x2284)) (* 10.0 ?x2284)) ?x753)))
 (let (($x3451 (and (or (<= ?x1458 ?x2294) $x410) (and (<= ?x2360 11.0) (<= (+ ?x1640 ?x261) ?x2738)))))
 (let ((?x1981 (rval2 |v11:6_st|)))
 (let ((?x1325 (* 17.0 ?x1981)))
 (let ((?x420 (+ (+ (+ (* ?x2122 ?x1981) (* (- 6.0) |v1:16|)) ?x1325) (* (- 6.0) ?x2284))))
 (let ((?x3117 (+ (+ (+ (* (- 20.0) |v14:3|) (* ?x2738 |v14:3|)) (* 15.0 |v15:2|)) (* ?x1949 ?x2284))))
 (let ((?x3420 (+ (+ (+ (* 6.0 |v1:16|) (* 14.0 ?x1947)) (* 12.0 |v13:4|)) (* ?x1034 (rval2 |v9:8_st|)))))
 (let ((?x1439 (* 17.0 |v5:12|)))
 (let ((?x1887 (+ (+ (+ (* 5.0 |v2:15|) (* (- 9.0) |v13:4|)) (* 4.0 |v14:3|)) ?x1439)))
 (let (($x2953 (and (or (<= ?x1887 4.0) (<= ?x3420 2.0)) (and (<= ?x3117 ?x2294) (<= ?x420 3.0)))))
 (let ((?x1423 (rval2 |v10:7_st|)))
 (let ((?x3263 (* 3.0 ?x1423)))
 (let (($x79 (<= (+ (+ (+ (* 5.0 ?x2114) (* ?x1795 |v12:5|)) (* 0.0 ?x2114)) ?x3263) ?x1034)))
 (let ((?x3473 (* ?x2738 |v14:3|)))
 (let ((?x3109 (+ (+ (+ (* 16.0 |v13:4|) (* (- 10.0) ?x1423)) (* 0.0 |v1:16|)) ?x3473)))
 (let ((?x966 (- 10.0)))
 (let ((?x2205 (+ (+ (+ (* 10.0 |v14:3|) (* ?x3466 |v4:13|)) (* ?x1034 |v13:4|)) (* ?x2294 |v13:4|))))
 (let ((?x2425 (- 12.0)))
 (let ((?x2937 (+ (+ (+ (* 13.0 (rval2 |v9:8_st|)) |v0:17|) (* 7.0 (rval2 |v9:8_st|))) (* ?x2425 ?x1981))))
 (let (($x729 (and (and (<= ?x2937 ?x2425) (<= ?x2205 ?x966)) (and (<= ?x3109 20.0) $x79))))
 (let ((?x590 (+ (+ (+ (* (- 20.0) ?x1981) (* (- 1.0) |v4:13|)) (* ?x966 |v16:1|)) (* (- 15.0) |v12:5|))))
 (let (($x368 (or (and (or (<= ?x590 18.0) $x729) (and $x2953 $x3451)) (and $x679 (and (<= ?x395 ?x1949) $x115)))))
 (let ((?x1635 (* ?x2425 |v14:3|)))
 (let (($x3104 (<= (+ (+ (+ (* ?x3466 ?x2284) (* ?x2425 |v4:13|)) (* (- 17.0) ?x2114)) ?x1635) 1.0)))
 (let ((?x376 (* 2.0 |v14:3|)))
 (let (($x239 (<= (+ (+ (+ (* 20.0 |v12:5|) (* 5.0 |v17:0|)) (* ?x913 |v13:4|)) ?x376) ?x1795)))
 (let ((?x273 (- 18.0)))
 (let ((?x3112 (+ (+ (+ (* 2.0 ?x2284) (* ?x2152 |v15:2|)) (* ?x3466 |v16:1|)) (* ?x2152 ?x1981))))
 (let ((?x189 (+ (+ (+ (* ?x273 |v5:12|) (* 12.0 ?x1981)) (* 4.0 ?x2114)) (* (- 9.0) ?x2114))))
 (let ((?x1884 (- 9.0)))
 (let ((?x339 (* ?x1884 |v3:14|)))
 (let (($x110 (<= (+ (+ (+ (* 5.0 |v15:2|) (* ?x1034 ?x2284)) (* 11.0 |v1:16|)) ?x339) ?x2122)))
 (let (($x3023 (and $x110 (<= (+ (+ (+ (* ?x2152 |v13:4|) ?x1325) ?x3263) (* 14.0 ?x1981)) 2.0))))
 (let ((?x1161 (+ (+ (+ (* 15.0 |v5:12|) (* (- 20.0) ?x2114)) (* 18.0 ?x2114)) (* (- 1.0) ?x1947))))
 (let (($x978 (<= (+ (+ (+ |v13:4| (* ?x1795 |v0:17|)) ?x501) (* 15.0 (rval2 |v9:8_st|))) 10.0)))
 (let (($x20 (and (or (or $x978 (<= ?x1161 8.0)) $x3023) (and (and (<= ?x189 2.0) (<= ?x3112 ?x273)) (or $x239 $x3104)))))
 (let ((?x155 (rval2 |v9:8_st|)))
 (let ((?x821 (* 18.0 ?x155)))
 (let (($x768 (<= (+ (+ (+ (* ?x273 |v17:0|) (* (- 20.0) |v14:3|)) (* 4.0 |v1:16|)) ?x821) ?x2294)))
 (let (($x2473 (or (<= (+ (+ (+ (* ?x3466 |v12:5|) ?x1085) ?x376) (* 4.0 ?x1423)) 11.0) $x768)))
 (let ((?x1853 (* 19.0 |v13:4|)))
 (let (($x401 (<= (+ (+ (+ (* 16.0 |v16:1|) (* 0.0 ?x1981)) (* 9.0 |v17:0|)) ?x1853) 7.0)))
 (let ((?x513 (* 13.0 |v4:13|)))
 (let (($x1965 (<= (+ (+ (+ (* (- 17.0) |v5:12|) ?x2078) (* (- 20.0) |v16:1|)) ?x513) ?x2152)))
 (let (($x827 (<= (+ (+ (+ |v15:2| (* ?x1884 |v1:16|)) (* (- 6.0) |v14:3|)) (* 12.0 |v3:14|)) 16.0)))
 (let ((?x2442 (+ (+ (* ?x273 |v5:12|) (* ?x1795 |v5:12|)) (* ?x1034 |v3:14|))))
 (let ((?x2799 (- 1.0)))
 (let ((?x3467 (* 15.0 |v2:15|)))
 (let (($x3088 (<= (+ (+ (+ (* ?x2799 |v2:15|) (* ?x1949 |v17:0|)) (* ?x913 |v0:17|)) ?x3467) ?x2799)))
 (let ((?x23 (* ?x966 |v0:17|)))
 (let ((?x1451 (+ (+ (+ (* 10.0 ?x1981) (* 13.0 |v14:3|)) (* (- 16.0) |v1:16|)) ?x23)))
 (let (($x3177 (<= (+ (+ (+ (* 5.0 ?x155) (* ?x2152 ?x2114)) ?x2114) (* (- 4.0) |v1:16|)) ?x966)))
 (let ((?x1296 (+ (+ (+ (* ?x273 |v12:5|) (* (- 17.0) |v5:12|)) (* 17.0 |v2:15|)) (* ?x2799 ?x1423))))
 (let (($x473 (and (or (and (<= ?x1296 ?x2294) $x3177) (or (<= ?x1451 ?x1034) $x3088)) (<= (+ ?x2442 (* 11.0 |v17:0|)) ?x2425))))
 (let ((?x1395 (* 13.0 ?x1981)))
 (let (($x2635 (<= (+ (+ (+ (* 16.0 ?x1981) (* 13.0 ?x155)) (* ?x2799 |v3:14|)) ?x1395) 9.0)))
 (let (($x134 (<= (+ (+ (+ (* ?x2799 |v1:16|) (* 16.0 |v16:1|)) ?x1635) (* ?x2294 |v2:15|)) 15.0)))
 (let (($x2346 (<= (+ (+ (+ (* ?x273 |v0:17|) (* ?x2425 ?x2284)) ?x155) (* 11.0 |v14:3|)) ?x1795)))
 (let ((?x1010 (* 5.0 ?x155)))
 (let (($x1168 (<= (+ (+ (+ (* ?x1795 |v1:16|) (* 20.0 |v1:16|)) (* 19.0 |v16:1|)) ?x1010) ?x1949)))
 (let (($x2727 (and (or (or $x1168 (or (and $x2346 $x134) $x2635)) $x473) (and (or $x827 (or (and $x1965 $x401) $x2473)) $x20))))
 (let (($x785 (not (= |v6:11_st| (RMk1 val!8069)))))
 (let (($x1017 (not (= |v7:10_st| (RMk1 val!8068)))))
 (let (($x2912 (not (= |v8:9_st| (RMk1 val!8067)))))
 (let (($x2702 (not (= |v9:8_st| (RMk1 val!8066)))))
 (let (($x1978 (not (= |v10:7_st| (RMk1 val!8065)))))
 (let (($x891 (not (= |v11:6_st| (RMk1 val!8064)))))
 (and $x891 $x1978 $x2702 $x2912 $x1017 $x785 (or $x2727 $x368))))))))))))))))))))))))))))))))))))))))))))))))))))))))))))))))))))))))))))))))))))))))))))))))))))))))))))))))
 )
 )
 )
 )
 )
 )
 )
 )
 )
 )
 )
 )
 )
 )
 )
 )
 )
 )
(check-sat)
